Al Ni
2.926
  1.00000000  0.00000000  1.63299320
 -2.50000000  0.86602540  1.63299320
 -0.50000000 -2.59807620  0.00000000
 11  11 
D
  0.00000000   0.00000000   0.00000000
  0.72727273   0.27272727   0.09090909
  0.45454545   0.54545455   0.18181818
  0.90909091   0.09090909   0.36363636
  0.36363636   0.63636364   0.54545455
  0.09090909   0.90909091   0.63636364
  0.21212120   0.28787878   0.98484849
  0.66666666   0.83333333   0.16666667
  0.12121211   0.37878787   0.34848485
  0.57575757   0.92424242   0.53030303
  0.30303029   0.19696969   0.62121212
  0.18181818   0.81818182   0.27272727
  0.63636364   0.36363636   0.45454545
  0.81818182   0.18181818   0.72727273
  0.54545455   0.45454545   0.81818182
  0.27272727   0.72727273   0.90909091
  0.48484848   0.01515151   0.89393940
  0.93939393   0.56060606   0.07575758
  0.39393939   0.10606060   0.25757576
  0.84848484   0.65151515   0.43939394
  0.03030302   0.46969697   0.71212122
  0.75757575   0.74242424   0.80303031
