Al Ni
2.926
  1.00000000  0.00000000  1.63299320
  1.00000000  1.73205080  0.00000000
 -2.00000000  1.73205080  1.63299320
  7   9 
D
  0.00000000   0.00000000   0.00000000
  0.75000000   0.75000000   0.25000000
  0.00000000   0.50000000   0.00000000
  0.25000000   0.75000000   0.75000000
  0.20833333   0.87500000   0.29166666
  0.95833333   0.62500000   0.54166666
  0.95833333   0.12500000   0.54166666
  0.50000000   0.50000000   0.50000000
  0.25000000   0.25000000   0.75000000
  0.75000000   0.25000000   0.25000000
  0.50000000   0.00000000   0.50000000
  0.45833333   0.12500000   0.04166666
  0.70833333   0.37500000   0.79166666
  0.45833333   0.62500000   0.04166666
  0.20833333   0.37500000   0.29166666
  0.70833333   0.87500000   0.79166666
