Al Ni
2.926
  1.00000000  0.00000000  0.00000000
  0.50000000 -0.86602540  3.26598640
  0.00000000 -1.73205080  0.00000000
  3   5 
D
  0.00000000   0.00000000   0.00000000
  0.75000000   0.50000000   0.75000000
  0.50000000  -0.00000000   0.50000000
  0.25000000   0.50000000   0.25000000
  0.37500000   0.24999999   0.70833334
  0.12500000   0.74999999   0.45833334
  0.87500000   0.24999999   0.20833334
  0.62500000   0.74999999   0.95833334
