Al Ni
2.926
  1.00000000  0.00000000  0.00000000
  0.50000000  0.86602540  4.89897960
 -0.50000000 -2.59807620 -0.00000000
  9   9 
D
  0.00000000   0.00000000   0.00000000
  0.88888889   0.33333333   0.11111111
  0.77777778   0.66666667   0.22222222
  0.66666667   0.00000000   0.33333333
  0.55555556   0.33333333   0.44444444
  0.22222222   0.33333333   0.77777778
  0.38888889   0.16666666   0.94444445
  0.72222223   0.16666666   0.61111111
  0.50000000   0.83333333   0.83333334
  0.44444444   0.66666667   0.55555556
  0.33333333   0.00000000   0.66666667
  0.11111111   0.66666667   0.88888889
  0.27777778   0.50000000   0.05555556
  0.16666667   0.83333333   0.16666667
  0.05555556   0.16666666   0.27777778
  0.94444445   0.50000000   0.38888889
  0.83333334   0.83333333   0.50000000
  0.61111112   0.50000000   0.72222223
