Al Ni
2.926
 -1.50000000  0.86602540  0.00000000
 -1.50000000 -4.33012700  1.63299320
 -0.50000000  0.86602540  1.63299320
 14   6 
D
  0.00000000   0.00000000   0.00000000
  0.60000000   0.10000000   0.90000000
  0.20000000   0.20000000   0.80000000
  0.80000000   0.30000000   0.70000000
  0.40000000   0.40000000   0.60000000
  0.60000000   0.60000000   0.40000000
  0.20000000   0.70000000   0.30000000
  0.53333334   0.95000000   0.54999999
  0.33333334   0.25000000   0.24999999
  0.93333334   0.35000000   0.14999999
  0.53333334   0.45000000   0.04999999
  0.13333334   0.55000000   0.94999999
  0.33333334   0.75000000   0.74999999
  0.93333334   0.85000000   0.64999999
  0.00000000   0.50000000   0.50000000
  0.80000000   0.80000000   0.20000000
  0.40000000   0.90000000   0.10000000
  0.13333334   0.05000000   0.44999999
  0.73333334   0.15000000   0.34999999
  0.73333334   0.65000000   0.84999999
