Al Ni
2.926
 -1.50000000  0.86602540  0.00000000
 -1.00000000 -1.73205080  1.63299320
 -0.50000000  0.86602540  1.63299320
  5   5 
D
  0.00000000   0.00000000   0.00000000
  0.60000000   0.20000000   0.80000000
  0.20000000   0.40000000   0.60000000
  0.80000000   0.60000000   0.40000000
  0.73333334   0.30000000   0.19999999
  0.40000000   0.80000000   0.20000000
  0.53333334   0.90000000   0.59999999
  0.13333334   0.10000000   0.39999999
  0.33333334   0.50000000  -0.00000001
  0.93333334   0.70000000   0.79999999
