Al Ni
2.926
  1.00000000  0.00000000  0.00000000
 -0.50000000  0.86602540  1.63299320
  0.00000000 -1.73205080  1.63299320
  3   3 
D
  0.00000000   0.00000000   0.00000000
  0.33333333   0.66666667   0.33333333
  0.72222222   0.44444443   0.05555556
  0.66666667   0.33333333   0.66666667
  0.05555555   0.11111110   0.38888889
  0.38888888   0.77777776   0.72222222
