Al Ni
2.926
  1.00000000  0.00000000  0.00000000
 -0.50000000  0.86602540  0.00000000
  0.00000000  0.00000000  3.26598640
  2   2 
D
  0.00000000   0.00000000   0.00000000
  0.66666666   0.33333332   0.24999999
  0.00000000   0.00000000   0.50000000
  0.66666666   0.33333332   0.74999999
