Al Ni
2.926
 -1.50000000  0.86602540  0.00000000
 -1.50000000 -2.59807620  1.63299320
 -0.50000000  0.86602540  1.63299320
  8   6 
D
  0.00000000   0.00000000   0.00000000
  0.57142857   0.14285714   0.85714286
  0.14285714   0.28571429   0.71428571
  0.71428571   0.42857143   0.57142857
  0.54761905   0.92857143   0.57142856
  0.11904762   0.07142857   0.42857141
  0.69047619   0.21428572   0.28571427
  0.97619048   0.78571429   0.71428570
  0.28571429   0.57142857   0.42857143
  0.85714286   0.71428571   0.28571429
  0.42857143   0.85714286   0.14285714
  0.26190476   0.35714286   0.14285713
  0.83333334   0.50000000  -0.00000001
  0.40476191   0.64285714   0.85714284
